%mem=1gb
%cpu=0-7
% chk=heh.chk
# pop=none scan hf/gen units=au Geom=nocrowd

we

1 1
H
He 1 R

R 0.5 301 0.01

He     0 
S   3   1.24
      6.36242139             0.15432897       
      1.15892300             0.53532814       
      0.31364979             0.44463454 
****
H     0 
S   3   1.0
      3.42525091             0.15432897       
      0.62391373             0.53532814       
      0.16885540             0.44463454
****

